letting n =  10
letting blocks =  [[1, 1], [1, 2], [1, 3], [1, 6], [1, 7], [1, 10], [2, 3], [2, 4], [2, 5], [2, 7], [2, 9], [2, 10], [3, 5], [3, 6], [3, 7], [4, 2], [4, 4], [4, 7], [4, 8], [4, 9], [5, 2], [5, 3], [5, 5], [5, 6], [5, 10], [6, 2], [6, 3], [6, 4], [7, 2], [7, 4], [7, 7], [7, 9], [8, 1], [8, 2], [8, 3], [8, 6], [8, 7], [8, 10], [9, 1], [9, 4], [9, 5], [9, 9], [9, 10], [10, 3], [10, 8], [10, 10]]
